(get-info :name)
(get-info :version)
(set-option :produce-models true)
(set-logic ALL)
(set-info :smt-lib-version 2.5)
(push 1)
(push 1)
(declare-fun p() Int)
(assert (not (not (and (not (not (and (<= 0 (+ (- 1) p)) (<= 0 (+ 10 (- p))))))))))
(check-sat)
(get-value (p))
(pop 1)
(push 1)
(declare-fun p() Int)
(assert (not (not (and (not (not (and (<= 0 (+ (- 1) p)) (<= 0 (+ 10 (- p))))))))))
(check-sat)
(get-value (p))
(pop 1)
(push 1)
(assert (not (not (and (not (not false))))))
(check-sat)
(pop 1)
(push 1)
(declare-fun p() Int)
(assert (not (not (and (not (not (and (<= 0 (+ (- 1) p)) (<= 0 (+ 10 (- p))))))))))
(check-sat)
(get-value (p))
(pop 1)
(push 1)
(declare-fun p() Int)
(assert (not (not (and (not (not (and (<= 0 (+ (- 1) p)) (<= 0 (+ 10 (- p))))))))))
(check-sat)
(get-value (p))
(pop 1)
(push 1)
(declare-fun p() Int)
(assert (not (not (and (not (not (and (<= 0 (+ (- 1) p)) (<= 0 (+ 10 (- p))))))))))
(check-sat)
(get-value (p))
(pop 1)
(push 1)
(declare-fun p() Int)
(assert (not true))
(check-sat)
(pop 1)
(push 1)
(assert (not (not (and (not (not false))))))
(check-sat)
(pop 1)
(push 1)
(declare-fun p() Int)
(assert (not (not (and (not (not (and (<= 0 (+ (- 1) p)) (<= 0 (+ 10 (- p))))))))))
(check-sat)
(get-value (p))
(pop 1)
(push 1)
(declare-fun p() Int)
(assert (not (not (and (not (not (and (<= 0 (+ (- 1) p)) (<= 0 (+ 10 (- p))))))))))
(check-sat)
(get-value (p))
(pop 1)
(push 1)
(declare-fun p() Int)
(assert (not true))
(check-sat)
(pop 1)
(push 1)
(declare-fun p() Int)
(assert (not (not (and (not (not (and (<= 0 (+ (- 1) p)) (<= 0 (+ 10 (- p))))))))))
(check-sat)
(get-value (p))
(pop 1)
(push 1)
(declare-fun p() Int)
(assert (not true))
(check-sat)
(pop 1)
(push 1)
(declare-fun p() Int)
(assert (not (not (and (not (not (and (<= 0 (+ (- 1) p)) (<= 0 (+ 10 (- p))))))))))
(check-sat)
(get-value (p))
(pop 1)
(push 1)
(declare-fun p() Int)
(assert (not true))
(check-sat)
(pop 1)
(push 1)
(declare-fun p() Int)
(assert (not (not (and (not (not (and (<= 0 (+ (- 1) p)) (<= 0 (+ 10 (- p))))))))))
(check-sat)
(get-value (p))
(pop 1)
(push 1)
(declare-fun p() Int)
(assert (not true))
(check-sat)
(pop 1)
(push 1)
(declare-fun p() Int)
(assert (not (not (and (not (not (and (<= 0 (+ (- 1) p)) (<= 0 (+ 10 (- p))))))))))
(check-sat)
(get-value (p))
(pop 1)
(push 1)
(declare-fun p() Int)
(assert (not true))
(check-sat)
(pop 1)
(push 1)
(declare-fun p() Int)
(assert (not (not (and (not (not (and (<= 0 (+ (- 1) p)) (<= 0 (+ 10 (- p))))))))))
(check-sat)
(get-value (p))
(pop 1)
(push 1)
(declare-fun p() Int)
(assert (not (not (and (not (not (and (<= 0 (+ (- 1) p)) (<= 0 (+ 10 (- p))))))))))
(check-sat)
(get-value (p))
(pop 1)
(push 1)
(declare-fun p() Int)
(assert (not true))
(check-sat)
(pop 1)
(push 1)
(declare-fun p() Int)
(assert (not (not (and (not (not (and (<= 0 (+ (- 1) p)) (<= 0 (+ 10 (- p))))))))))
(check-sat)
(get-value (p))
(pop 1)
(push 1)
(declare-fun p() Int)
(assert (not true))
(check-sat)
(pop 1)
(push 1)
(declare-fun p() Int)
(assert (not (not (and (not (not (and (<= 0 (+ (- 1) p)) (<= 0 (+ 10 (- p))))))))))
(check-sat)
(get-value (p))
(pop 1)
(push 1)
(declare-fun p() Int)
(assert (not (not (and (not (not (and (<= 0 (+ (- 1) p)) (<= 0 (+ 10 (- p))))))))))
(check-sat)
(get-value (p))
(pop 1)
(push 1)
(declare-fun p() Int)
(assert (not true))
(check-sat)
(pop 1)
(push 1)
(declare-fun p() Int)
(assert (not true))
(check-sat)
(pop 1)
(push 1)
(declare-fun p() Int)
(assert (not true))
(check-sat)
(pop 1)
